Translating instance to solver...

Set parameter TimeLimit to value 28800
Gurobi Optimizer version 11.0.2 build v11.0.2rc0 (linux64 - "Ubuntu 22.04.4 LTS")

CPU model: Intel(R) Xeon(R) Gold 5120 CPU @ 2.20GHz, instruction set [SSE2|AVX|AVX2|AVX512]
Thread count: 28 physical cores, 56 logical processors, using up to 28 threads

Academic license 2463511 - for non-commercial use only - registered to lu___@cefet-rj.br
Optimize a model with 61055 rows, 30653 columns and 140553 nonzeros
Model fingerprint: 0x336973f3
Variable types: 1 continuous, 30652 integer (30600 binary)
Coefficient statistics:
  Matrix range     [1e+00, 1e+05]
  Objective range  [3e-01, 8e-01]
  Bounds range     [1e+00, 5e+01]
  RHS range        [1e+00, 5e+01]
Presolve removed 50892 rows and 26438 columns
Presolve time: 0.86s
Presolved: 10163 rows, 4215 columns, 30673 nonzeros
Variable types: 0 continuous, 4215 integer (4164 binary)

Root relaxation: objective 9.176730e-01, 462 iterations, 0.02 seconds (0.02 work units)

    Nodes    |    Current Node    |     Objective Bounds      |     Work
 Expl Unexpl |  Obj  Depth IntInf | Incumbent    BestBd   Gap | It/Node Time

     0     0    0.91767    0   16          -    0.91767      -     -    1s
     0     0    0.91767    0   46          -    0.91767      -     -    1s
     0     0    0.91767    0   46          -    0.91767      -     -    1s
H    0     0                       3.6353460    0.91767  74.8%     -    1s
H    0     0                       0.9176730    0.91767  0.00%     -    1s
     0     0    0.91767    0   12    0.91767    0.91767  0.00%     -    1s

Cutting planes:
  Learned: 1
  Gomory: 5
  Lift-and-project: 1
  Cover: 4
  Implied bound: 14
  Clique: 8
  MIR: 19
  StrongCG: 3
  Zero half: 4
  RLT: 5
  Relax-and-lift: 9

Explored 1 nodes (3779 simplex iterations) in 1.83 seconds (1.48 work units)
Thread count was 28 (of 56 available processors)

Solution count 2: 0.917673 3.63535 

Optimal solution found (tolerance 1.00e-04)
Best objective 9.176730000000e-01, best bound 9.176730000000e-01, gap 0.0000%

Solver Wallclock Time (for this epsilon): 1.834791898727417 s
Python wallclock Time (for this epsilon): 6.263062953948975 s


Total Elapsed Time (since program call): 161.46834254264832 s

Results:

I = 0.9176730000000001 mA
C = 12.0 points
C ~= 4.800000000000001 km^2

Minimum Epsilon for this instance = 10
Maximum Epsilon for this instance = 100

Current Epsilon = 10


Preprocessing Time (for this epsilon): 0.008472204208374023 s


Updated solution vectors:
sol_I = [-0.9176730000000001]
sol_C = [12.0]
sol_eps = [10]
sol_gap = [0.0]
